(declare-const a Real)
(declare-const b Real)
(declare-const c Real)
(assert (= (+ a b c) 1))
(assert (> a 0))
(assert (> b 0))
(assert (> c 0))
(assert (not (<= (+ (/ 5 4) (pow (* a c) (/ 1 2)) (* -1 (pow (+ a (* b c)) (/ 1 2))) (* -1 (pow (+ b (* a c)) (/ 1 2))) (* -1 (pow (+ c (* a b)) (/ 1 2))) (* (/ 1 4) a (pow (+ 1 b) 2)) (* (/ 1 32) (+ 1 (* 4 c)) (+ 5 (pow b 2) (* 2 b)))) 0)))
(check-sat)
(get-model)
(exit)